qbf_easy_train/easy_5640_SAT.qdimacs
p cnf 21 48
a 10 15 0
e 1 2 3 4 5 6 7 8 9 11 12 13 14 16 17 18 19 20 21 0
3 -1 0
3 2 0
1 -2 -3 0
-5 6 -7 0
5 -6 -7 0
-5 -6 7 0
5 6 7 0
-8 4 0
-8 7 0
-4 -7 8 0
9 3 0
9 -8 0
-3 8 -9 0
11 -10 0
11 2 0
10 -2 -11 0
-12 -9 0
-12 -11 0
9 11 12 0
14 -2 0
14 10 0
2 -10 -14 0
-15 13 0
-15 14 0
-13 -14 15 0
16 5 -17 0
-16 -5 -17 0
16 -5 17 0
-16 5 17 0
18 -15 0
18 17 0
15 -17 -18 0
-13 -4 -19 0
13 4 -19 0
-13 4 19 0
13 -4 19 0
18 -19 -20 0
-18 19 -20 0
18 19 20 0
-18 -19 20 0
21 -12 0
21 20 0
12 -20 -21 0
14 2 19 11 0
20 -19 13 -14 -11 0
3 -15 13 19 17 5 0
-14 19 17 8 13 0
21 0
