sat_easy_train/easy_5640_SAT.dimacs
p cnf 73 220
-3 -1 0
-3 2 0
1 -2 3 0
-6 -4 0
-6 5 0
4 -5 6 0
-7 -8 -9 0
7 8 -9 0
-7 8 9 0
7 -8 9 0
-11 9 0
-11 10 0
-9 -10 11 0
13 -11 0
13 12 0
11 -12 -13 0
14 -6 0
14 13 0
6 -13 -14 0
16 7 0
16 -15 0
-7 15 -16 0
-16 -17 -18 0
16 17 -18 0
-16 17 18 0
16 -17 18 0
20 -10 0
20 19 0
10 -19 -20 0
-18 -20 -21 0
18 20 -21 0
-18 20 21 0
18 -20 21 0
-22 14 0
-22 21 0
-14 -21 22 0
3 22 -23 0
-3 -22 -23 0
3 -22 23 0
-3 22 23 0
-19 7 -25 0
19 -7 -25 0
-19 -7 25 0
19 7 25 0
26 -24 0
26 25 0
24 -25 -26 0
-27 24 0
-27 8 0
-24 -8 27 0
27 -1 -28 0
-27 1 -28 0
27 1 28 0
-27 -1 28 0
29 28 0
29 -27 0
-28 27 -29 0
-30 -29 0
-30 10 0
29 -10 30 0
30 15 -31 0
-30 -15 -31 0
30 -15 31 0
-30 15 31 0
-32 31 0
-32 -17 0
-31 17 32 0
-33 26 0
-33 32 0
-26 -32 33 0
34 -23 0
34 -33 0
23 33 -34 0
-1 35 0
1 35 0
36 -35 0
36 16 0
35 -16 -36 0
-37 -16 0
-37 28 0
16 -28 37 0
38 36 0
38 -37 0
-36 37 -38 0
39 11 0
39 -4 0
-11 4 -39 0
5 7 -40 0
-5 -7 -40 0
5 -7 40 0
-5 7 40 0
41 40 0
41 -27 0
-40 27 -41 0
42 39 0
42 -41 0
-39 41 -42 0
-38 42 -43 0
38 -42 -43 0
-38 -42 43 0
38 42 43 0
-7 -37 -44 0
7 37 -44 0
-7 37 44 0
7 -37 44 0
-43 44 -45 0
43 -44 -45 0
-43 -44 45 0
43 44 45 0
46 -35 0
46 -12 0
35 12 -46 0
46 -27 -47 0
-46 27 -47 0
46 27 47 0
-46 -27 47 0
19 8 -48 0
-19 -8 -48 0
19 -8 48 0
-19 8 48 0
49 48 0
49 10 0
-48 -10 -49 0
50 -16 0
50 28 0
16 -28 -50 0
-28 46 -51 0
28 -46 -51 0
-28 -46 51 0
28 46 51 0
-50 51 -52 0
50 -51 -52 0
-50 -51 52 0
50 51 52 0
53 49 0
53 52 0
-49 -52 -53 0
54 47 0
54 -53 0
-47 53 -54 0
55 8 0
55 -17 0
-8 17 -55 0
-56 2 -57 0
56 -2 -57 0
-56 -2 57 0
56 2 57 0
-57 58 -59 0
57 -58 -59 0
-57 -58 59 0
57 58 59 0
-60 -55 0
-60 -59 0
55 59 60 0
54 -60 -61 0
-54 60 -61 0
54 60 61 0
-54 -60 61 0
63 62 0
63 -5 0
-62 5 -63 0
-65 64 0
-65 -7 0
-64 7 65 0
-66 63 0
-66 -65 0
-63 65 66 0
67 -61 0
67 66 0
61 -66 -67 0
-45 -67 -68 0
45 67 -68 0
-45 67 68 0
45 -67 68 0
58 69 0
-58 69 0
-70 -5 0
-70 -1 0
5 1 70 0
69 70 -71 0
-69 -70 -71 0
69 -70 71 0
-69 70 71 0
-72 -68 0
-72 71 0
68 -71 72 0
-34 72 -73 0
34 -72 -73 0
-34 -72 73 0
34 72 73 0
-41 9 46 -14 -40 -32 0
51 -21 27 37 0
12 -31 -26 45 0
44 17 0
-72 -25 -43 39 0
-58 -42 -65 0
-63 14 -36 0
-3 47 18 0
-2 -36 56 32 0
66 -48 18 0
-4 -17 0
-17 -9 41 -51 -39 0
54 57 60 9 -44 0
-56 -64 -25 -15 51 38 0
17 73 -34 -8 0
-52 20 -22 -55 -23 37 0
-69 51 -48 0
4 48 0
-35 -7 30 -53 52 0
63 39 10 18 -7 -57 0
-64 61 39 23 32 -43 0
-55 -5 0
12 -56 -54 -7 0
17 -30 28 40 0
73 26 -35 42 0
55 -1 7 -57 -45 -68 0
-62 -29 64 37 0
-34 -11 46 0
39 35 -33 -37 -22 0
73 0
